HUN,8,6,516
0,22,2,25,5,23,3,25,4,27,1,22
1,23,4,22,2,24,3,22,5,30,0,28
5,22,0,26,2,29,4,28,1,25,3,23
1,24,0,26,3,28,2,28,4,30,5,28
2,21,0,22,5,24,3,30,4,25,1,28
2,21,1,30,3,27,5,21,4,24,0,26
5,23,3,26,2,27,0,25,1,24,4,26
5,26,0,23,3,27,1,25,2,25,4,22
